c Generated map
c Size: 13 * 13, weights in range: 1 to 10, walls: True, with ratio 0.4
c dim 1 of 3
c
p sp 169 114
c graph contains 169 nodes and 114 arcs
c
a 1 14 8
a 14 1 8
a 1 2 8
a 2 1 8
a 2 3 2
a 3 2 2
a 3 16 6
a 16 3 6
a 7 20 4
a 20 7 4
a 9 22 3
a 22 9 3
a 9 10 6
a 10 9 6
a 12 25 10
a 25 12 10
a 12 13 5
a 13 12 5
a 14 27 7
a 27 14 7
a 16 29 8
a 29 16 8
a 20 33 10
a 33 20 10
a 20 21 5
a 21 20 5
a 21 34 8
a 34 21 8
a 21 22 6
a 22 21 6
a 22 35 4
a 35 22 4
a 24 25 6
a 25 24 6
a 27 40 7
a 40 27 7
a 27 28 3
a 28 27 3
a 28 41 5
a 41 28 5
a 28 29 9
a 29 28 9
a 29 42 3
a 42 29 3
a 29 30 8
a 30 29 8
a 30 43 4
a 43 30 4
a 30 31 1
a 31 30 1
a 33 34 9
a 34 33 9
a 34 47 9
a 47 34 9
a 34 35 4
a 35 34 4
a 40 53 5
a 53 40 5
a 40 41 7
a 41 40 7
a 41 54 2
a 54 41 2
a 41 42 5
a 42 41 5
a 42 43 3
a 43 42 3
a 49 62 4
a 62 49 4
a 49 50 7
a 50 49 7
a 50 63 5
a 63 50 5
a 53 66 10
a 66 53 10
a 53 54 1
a 54 53 1
a 59 72 4
a 72 59 4
a 61 74 7
a 74 61 7
a 61 62 5
a 62 61 5
a 62 75 10
a 75 62 10
a 62 63 1
a 63 62 1
a 63 76 10
a 76 63 10
a 63 64 8
a 64 63 8
a 64 77 3
a 77 64 3
a 71 84 7
a 84 71 7
a 71 72 6
a 72 71 6
a 72 73 6
a 73 72 6
a 73 86 6
a 86 73 6
a 73 74 3
a 74 73 3
a 74 87 9
a 87 74 9
a 74 75 5
a 75 74 5
a 75 76 10
a 76 75 10
a 76 77 5
a 77 76 5
a 77 90 7
a 90 77 7
a 80 93 6
a 93 80 6
a 80 81 10
a 81 80 10
a 83 96 8
a 96 83 8
a 83 84 8
a 84 83 8
a 86 99 9
a 99 86 9
a 86 87 7
a 87 86 7
a 87 100 10
a 100 87 10
a 90 91 4
a 91 90 4
a 92 105 1
a 105 92 1
a 92 93 3
a 93 92 3
a 96 109 2
a 109 96 2
a 98 111 10
a 111 98 10
a 98 99 1
a 99 98 1
a 99 112 4
a 112 99 4
a 99 100 4
a 100 99 4
a 107 120 3
a 120 107 3
a 109 122 2
a 122 109 2
a 109 110 1
a 110 109 1
a 110 123 5
a 123 110 5
a 110 111 8
a 111 110 8
a 111 124 8
a 124 111 8
a 111 112 6
a 112 111 6
a 112 125 6
a 125 112 6
a 114 127 10
a 127 114 10
a 122 135 8
a 135 122 8
a 122 123 2
a 123 122 2
a 123 136 5
a 136 123 5
a 123 124 2
a 124 123 2
a 124 137 9
a 137 124 9
a 124 125 3
a 125 124 3
a 125 126 6
a 126 125 6
a 126 139 9
a 139 126 9
a 126 127 7
a 127 126 7
a 127 140 8
a 140 127 8
a 127 128 5
a 128 127 5
a 128 141 1
a 141 128 1
a 134 147 7
a 147 134 7
a 134 135 8
a 135 134 8
a 135 148 10
a 148 135 10
a 135 136 5
a 136 135 5
a 136 137 8
a 137 136 8
a 137 150 4
a 150 137 4
a 139 140 7
a 140 139 7
a 140 153 2
a 153 140 2
a 140 141 9
a 141 140 9
a 145 158 6
a 158 145 6
a 145 146 3
a 146 145 3
a 146 159 9
a 159 146 9
a 146 147 10
a 147 146 10
a 147 148 1
a 148 147 1
a 148 161 9
a 161 148 9
a 153 166 10
a 166 153 10
a 157 158 2
a 158 157 2
a 158 159 10
a 159 158 10
a 161 162 2
a 162 161 2
a 166 167 3
a 167 166 3
a 167 168 6
a 168 167 6
a 168 169 8
a 169 168 8
